54020
10 16 734
16 39 451
39 46 214
46 36 402
36 15 679
15 52 631
52 2 598
2 45 787
45 11 436
11 25 545
25 31 299
31 27 4460
27 1 4123
1 33 7621
33 42 4807
42 18 2089
18 4 606
4 30 380
30 47 944
47 12 1082
12 14 816
14 9 471
9 34 835
34 53 396
53 54 624
54 26 967
26 49 560
49 55 711
55 28 487
28 6 404
6 3 385
3 43 1096
43 13 790
13 51 644
51 40 1042
40 7 1176
7 37 517
37 5 467
5 35 323
35 24 296
24 20 740
20 50 763
50 38 1180
38 8 368
8 44 383
44 32 676
32 41 362
41 19 1369
19 48 897
48 17 415
17 23 619
23 21 176
21 29 516
29 22 544
22 10 117
